c description: Graph pigeonhole principle formula on fast_gnp_random_graph(10,25,0.9)
c generator: CNFgen (0.9.0)
c copyright: (C) 2012-2020 Massimo Lauria <massimo.lauria@uniroma1.it>
c url: https://massimolauria.net/cnfgen
c
p cnf 225 920
1 2 3 4 5 6 7 8 9 10 11 12 13 14 15 16 17 18 19 20 21 22 23 24 25 0
26 27 28 29 30 31 32 33 34 35 36 37 38 39 40 41 42 43 44 45 46 47 48 49 0
50 51 52 53 54 55 56 57 58 59 60 61 62 63 64 65 66 67 68 69 70 71 72 0
73 74 75 76 77 78 79 80 81 82 83 84 85 86 87 88 89 90 91 92 93 94 95 0
96 97 98 99 100 101 102 103 104 105 106 107 108 109 110 111 112 113 114 115 0
116 117 118 119 120 121 122 123 124 125 126 127 128 129 130 131 132 133 134 135 136 137 138 139 0
140 141 142 143 144 145 146 147 148 149 150 151 152 153 154 155 156 157 158 159 160 0
161 162 163 164 165 166 167 168 169 170 171 172 173 174 175 176 177 178 179 180 181 182 0
183 184 185 186 187 188 189 190 191 192 193 194 195 196 197 198 199 200 201 202 203 204 0
205 206 207 208 209 210 211 212 213 214 215 216 217 218 219 220 221 222 223 224 225 0
-1 -26 0
-1 -50 0
-1 -73 0
-1 -96 0
-1 -116 0
-1 -140 0
-1 -161 0
-1 -183 0
-1 -205 0
-26 -50 0
-26 -73 0
-26 -96 0
-26 -116 0
-26 -140 0
-26 -161 0
-26 -183 0
-26 -205 0
-50 -73 0
-50 -96 0
-50 -116 0
-50 -140 0
-50 -161 0
-50 -183 0
-50 -205 0
-73 -96 0
-73 -116 0
-73 -140 0
-73 -161 0
-73 -183 0
-73 -205 0
-96 -116 0
-96 -140 0
-96 -161 0
-96 -183 0
-96 -205 0
-116 -140 0
-116 -161 0
-116 -183 0
-116 -205 0
-140 -161 0
-140 -183 0
-140 -205 0
-161 -183 0
-161 -205 0
-183 -205 0
-2 -27 0
-2 -51 0
-2 -74 0
-2 -97 0
-2 -141 0
-2 -162 0
-2 -184 0
-27 -51 0
-27 -74 0
-27 -97 0
-27 -141 0
-27 -162 0
-27 -184 0
-51 -74 0
-51 -97 0
-51 -141 0
-51 -162 0
-51 -184 0
-74 -97 0
-74 -141 0
-74 -162 0
-74 -184 0
-97 -141 0
-97 -162 0
-97 -184 0
-141 -162 0
-141 -184 0
-162 -184 0
-3 -28 0
-3 -52 0
-3 -75 0
-3 -98 0
-3 -117 0
-3 -142 0
-3 -163 0
-3 -185 0
-3 -206 0
-28 -52 0
-28 -75 0
-28 -98 0
-28 -117 0
-28 -142 0
-28 -163 0
-28 -185 0
-28 -206 0
-52 -75 0
-52 -98 0
-52 -117 0
-52 -142 0
-52 -163 0
-52 -185 0
-52 -206 0
-75 -98 0
-75 -117 0
-75 -142 0
-75 -163 0
-75 -185 0
-75 -206 0
-98 -117 0
-98 -142 0
-98 -163 0
-98 -185 0
-98 -206 0
-117 -142 0
-117 -163 0
-117 -185 0
-117 -206 0
-142 -163 0
-142 -185 0
-142 -206 0
-163 -185 0
-163 -206 0
-185 -206 0
-4 -29 0
-4 -53 0
-4 -76 0
-4 -99 0
-4 -118 0
-4 -164 0
-4 -186 0
-4 -207 0
-29 -53 0
-29 -76 0
-29 -99 0
-29 -118 0
-29 -164 0
-29 -186 0
-29 -207 0
-53 -76 0
-53 -99 0
-53 -118 0
-53 -164 0
-53 -186 0
-53 -207 0
-76 -99 0
-76 -118 0
-76 -164 0
-76 -186 0
-76 -207 0
-99 -118 0
-99 -164 0
-99 -186 0
-99 -207 0
-118 -164 0
-118 -186 0
-118 -207 0
-164 -186 0
-164 -207 0
-186 -207 0
-5 -30 0
-5 -54 0
-5 -100 0
-5 -119 0
-5 -143 0
-5 -165 0
-5 -187 0
-5 -208 0
-30 -54 0
-30 -100 0
-30 -119 0
-30 -143 0
-30 -165 0
-30 -187 0
-30 -208 0
-54 -100 0
-54 -119 0
-54 -143 0
-54 -165 0
-54 -187 0
-54 -208 0
-100 -119 0
-100 -143 0
-100 -165 0
-100 -187 0
-100 -208 0
-119 -143 0
-119 -165 0
-119 -187 0
-119 -208 0
-143 -165 0
-143 -187 0
-143 -208 0
-165 -187 0
-165 -208 0
-187 -208 0
-6 -31 0
-6 -55 0
-6 -77 0
-6 -101 0
-6 -120 0
-6 -144 0
-6 -166 0
-6 -209 0
-31 -55 0
-31 -77 0
-31 -101 0
-31 -120 0
-31 -144 0
-31 -166 0
-31 -209 0
-55 -77 0
-55 -101 0
-55 -120 0
-55 -144 0
-55 -166 0
-55 -209 0
-77 -101 0
-77 -120 0
-77 -144 0
-77 -166 0
-77 -209 0
-101 -120 0
-101 -144 0
-101 -166 0
-101 -209 0
-120 -144 0
-120 -166 0
-120 -209 0
-144 -166 0
-144 -209 0
-166 -209 0
-7 -32 0
-7 -56 0
-7 -78 0
-7 -102 0
-7 -121 0
-7 -145 0
-7 -167 0
-7 -188 0
-32 -56 0
-32 -78 0
-32 -102 0
-32 -121 0
-32 -145 0
-32 -167 0
-32 -188 0
-56 -78 0
-56 -102 0
-56 -121 0
-56 -145 0
-56 -167 0
-56 -188 0
-78 -102 0
-78 -121 0
-78 -145 0
-78 -167 0
-78 -188 0
-102 -121 0
-102 -145 0
-102 -167 0
-102 -188 0
-121 -145 0
-121 -167 0
-121 -188 0
-145 -167 0
-145 -188 0
-167 -188 0
-8 -33 0
-8 -57 0
-8 -79 0
-8 -122 0
-8 -146 0
-8 -168 0
-8 -189 0
-8 -210 0
-33 -57 0
-33 -79 0
-33 -122 0
-33 -146 0
-33 -168 0
-33 -189 0
-33 -210 0
-57 -79 0
-57 -122 0
-57 -146 0
-57 -168 0
-57 -189 0
-57 -210 0
-79 -122 0
-79 -146 0
-79 -168 0
-79 -189 0
-79 -210 0
-122 -146 0
-122 -168 0
-122 -189 0
-122 -210 0
-146 -168 0
-146 -189 0
-146 -210 0
-168 -189 0
-168 -210 0
-189 -210 0
-9 -34 0
-9 -58 0
-9 -80 0
-9 -103 0
-9 -123 0
-9 -147 0
-9 -169 0
-9 -190 0
-9 -211 0
-34 -58 0
-34 -80 0
-34 -103 0
-34 -123 0
-34 -147 0
-34 -169 0
-34 -190 0
-34 -211 0
-58 -80 0
-58 -103 0
-58 -123 0
-58 -147 0
-58 -169 0
-58 -190 0
-58 -211 0
-80 -103 0
-80 -123 0
-80 -147 0
-80 -169 0
-80 -190 0
-80 -211 0
-103 -123 0
-103 -147 0
-103 -169 0
-103 -190 0
-103 -211 0
-123 -147 0
-123 -169 0
-123 -190 0
-123 -211 0
-147 -169 0
-147 -190 0
-147 -211 0
-169 -190 0
-169 -211 0
-190 -211 0
-10 -35 0
-10 -59 0
-10 -81 0
-10 -104 0
-10 -124 0
-10 -148 0
-10 -191 0
-10 -212 0
-35 -59 0
-35 -81 0
-35 -104 0
-35 -124 0
-35 -148 0
-35 -191 0
-35 -212 0
-59 -81 0
-59 -104 0
-59 -124 0
-59 -148 0
-59 -191 0
-59 -212 0
-81 -104 0
-81 -124 0
-81 -148 0
-81 -191 0
-81 -212 0
-104 -124 0
-104 -148 0
-104 -191 0
-104 -212 0
-124 -148 0
-124 -191 0
-124 -212 0
-148 -191 0
-148 -212 0
-191 -212 0
-11 -36 0
-11 -60 0
-11 -82 0
-11 -125 0
-11 -149 0
-11 -170 0
-11 -192 0
-11 -213 0
-36 -60 0
-36 -82 0
-36 -125 0
-36 -149 0
-36 -170 0
-36 -192 0
-36 -213 0
-60 -82 0
-60 -125 0
-60 -149 0
-60 -170 0
-60 -192 0
-60 -213 0
-82 -125 0
-82 -149 0
-82 -170 0
-82 -192 0
-82 -213 0
-125 -149 0
-125 -170 0
-125 -192 0
-125 -213 0
-149 -170 0
-149 -192 0
-149 -213 0
-170 -192 0
-170 -213 0
-192 -213 0
-12 -83 0
-12 -105 0
-12 -126 0
-12 -150 0
-12 -171 0
-12 -193 0
-12 -214 0
-83 -105 0
-83 -126 0
-83 -150 0
-83 -171 0
-83 -193 0
-83 -214 0
-105 -126 0
-105 -150 0
-105 -171 0
-105 -193 0
-105 -214 0
-126 -150 0
-126 -171 0
-126 -193 0
-126 -214 0
-150 -171 0
-150 -193 0
-150 -214 0
-171 -193 0
-171 -214 0
-193 -214 0
-13 -37 0
-13 -61 0
-13 -84 0
-13 -106 0
-13 -127 0
-13 -151 0
-13 -172 0
-13 -215 0
-37 -61 0
-37 -84 0
-37 -106 0
-37 -127 0
-37 -151 0
-37 -172 0
-37 -215 0
-61 -84 0
-61 -106 0
-61 -127 0
-61 -151 0
-61 -172 0
-61 -215 0
-84 -106 0
-84 -127 0
-84 -151 0
-84 -172 0
-84 -215 0
-106 -127 0
-106 -151 0
-106 -172 0
-106 -215 0
-127 -151 0
-127 -172 0
-127 -215 0
-151 -172 0
-151 -215 0
-172 -215 0
-14 -38 0
-14 -62 0
-14 -85 0
-14 -128 0
-14 -152 0
-14 -173 0
-14 -194 0
-14 -216 0
-38 -62 0
-38 -85 0
-38 -128 0
-38 -152 0
-38 -173 0
-38 -194 0
-38 -216 0
-62 -85 0
-62 -128 0
-62 -152 0
-62 -173 0
-62 -194 0
-62 -216 0
-85 -128 0
-85 -152 0
-85 -173 0
-85 -194 0
-85 -216 0
-128 -152 0
-128 -173 0
-128 -194 0
-128 -216 0
-152 -173 0
-152 -194 0
-152 -216 0
-173 -194 0
-173 -216 0
-194 -216 0
-15 -39 0
-15 -63 0
-15 -86 0
-15 -129 0
-15 -153 0
-15 -174 0
-15 -195 0
-15 -217 0
-39 -63 0
-39 -86 0
-39 -129 0
-39 -153 0
-39 -174 0
-39 -195 0
-39 -217 0
-63 -86 0
-63 -129 0
-63 -153 0
-63 -174 0
-63 -195 0
-63 -217 0
-86 -129 0
-86 -153 0
-86 -174 0
-86 -195 0
-86 -217 0
-129 -153 0
-129 -174 0
-129 -195 0
-129 -217 0
-153 -174 0
-153 -195 0
-153 -217 0
-174 -195 0
-174 -217 0
-195 -217 0
-16 -40 0
-16 -64 0
-16 -87 0
-16 -107 0
-16 -130 0
-16 -154 0
-16 -175 0
-16 -196 0
-16 -218 0
-40 -64 0
-40 -87 0
-40 -107 0
-40 -130 0
-40 -154 0
-40 -175 0
-40 -196 0
-40 -218 0
-64 -87 0
-64 -107 0
-64 -130 0
-64 -154 0
-64 -175 0
-64 -196 0
-64 -218 0
-87 -107 0
-87 -130 0
-87 -154 0
-87 -175 0
-87 -196 0
-87 -218 0
-107 -130 0
-107 -154 0
-107 -175 0
-107 -196 0
-107 -218 0
-130 -154 0
-130 -175 0
-130 -196 0
-130 -218 0
-154 -175 0
-154 -196 0
-154 -218 0
-175 -196 0
-175 -218 0
-196 -218 0
-17 -41 0
-17 -65 0
-17 -88 0
-17 -108 0
-17 -131 0
-17 -155 0
-17 -176 0
-17 -197 0
-17 -219 0
-41 -65 0
-41 -88 0
-41 -108 0
-41 -131 0
-41 -155 0
-41 -176 0
-41 -197 0
-41 -219 0
-65 -88 0
-65 -108 0
-65 -131 0
-65 -155 0
-65 -176 0
-65 -197 0
-65 -219 0
-88 -108 0
-88 -131 0
-88 -155 0
-88 -176 0
-88 -197 0
-88 -219 0
-108 -131 0
-108 -155 0
-108 -176 0
-108 -197 0
-108 -219 0
-131 -155 0
-131 -176 0
-131 -197 0
-131 -219 0
-155 -176 0
-155 -197 0
-155 -219 0
-176 -197 0
-176 -219 0
-197 -219 0
-18 -42 0
-18 -66 0
-18 -89 0
-18 -109 0
-18 -132 0
-18 -156 0
-18 -177 0
-18 -198 0
-18 -220 0
-42 -66 0
-42 -89 0
-42 -109 0
-42 -132 0
-42 -156 0
-42 -177 0
-42 -198 0
-42 -220 0
-66 -89 0
-66 -109 0
-66 -132 0
-66 -156 0
-66 -177 0
-66 -198 0
-66 -220 0
-89 -109 0
-89 -132 0
-89 -156 0
-89 -177 0
-89 -198 0
-89 -220 0
-109 -132 0
-109 -156 0
-109 -177 0
-109 -198 0
-109 -220 0
-132 -156 0
-132 -177 0
-132 -198 0
-132 -220 0
-156 -177 0
-156 -198 0
-156 -220 0
-177 -198 0
-177 -220 0
-198 -220 0
-19 -43 0
-19 -110 0
-19 -133 0
-19 -178 0
-19 -199 0
-19 -221 0
-43 -110 0
-43 -133 0
-43 -178 0
-43 -199 0
-43 -221 0
-110 -133 0
-110 -178 0
-110 -199 0
-110 -221 0
-133 -178 0
-133 -199 0
-133 -221 0
-178 -199 0
-178 -221 0
-199 -221 0
-20 -44 0
-20 -67 0
-20 -90 0
-20 -134 0
-20 -179 0
-20 -200 0
-20 -222 0
-44 -67 0
-44 -90 0
-44 -134 0
-44 -179 0
-44 -200 0
-44 -222 0
-67 -90 0
-67 -134 0
-67 -179 0
-67 -200 0
-67 -222 0
-90 -134 0
-90 -179 0
-90 -200 0
-90 -222 0
-134 -179 0
-134 -200 0
-134 -222 0
-179 -200 0
-179 -222 0
-200 -222 0
-21 -45 0
-21 -68 0
-21 -91 0
-21 -111 0
-21 -135 0
-21 -157 0
-21 -180 0
-21 -201 0
-21 -223 0
-45 -68 0
-45 -91 0
-45 -111 0
-45 -135 0
-45 -157 0
-45 -180 0
-45 -201 0
-45 -223 0
-68 -91 0
-68 -111 0
-68 -135 0
-68 -157 0
-68 -180 0
-68 -201 0
-68 -223 0
-91 -111 0
-91 -135 0
-91 -157 0
-91 -180 0
-91 -201 0
-91 -223 0
-111 -135 0
-111 -157 0
-111 -180 0
-111 -201 0
-111 -223 0
-135 -157 0
-135 -180 0
-135 -201 0
-135 -223 0
-157 -180 0
-157 -201 0
-157 -223 0
-180 -201 0
-180 -223 0
-201 -223 0
-22 -46 0
-22 -69 0
-22 -92 0
-22 -112 0
-22 -136 0
-22 -202 0
-22 -224 0
-46 -69 0
-46 -92 0
-46 -112 0
-46 -136 0
-46 -202 0
-46 -224 0
-69 -92 0
-69 -112 0
-69 -136 0
-69 -202 0
-69 -224 0
-92 -112 0
-92 -136 0
-92 -202 0
-92 -224 0
-112 -136 0
-112 -202 0
-112 -224 0
-136 -202 0
-136 -224 0
-202 -224 0
-23 -47 0
-23 -70 0
-23 -93 0
-23 -113 0
-23 -137 0
-23 -158 0
-47 -70 0
-47 -93 0
-47 -113 0
-47 -137 0
-47 -158 0
-70 -93 0
-70 -113 0
-70 -137 0
-70 -158 0
-93 -113 0
-93 -137 0
-93 -158 0
-113 -137 0
-113 -158 0
-137 -158 0
-24 -48 0
-24 -71 0
-24 -94 0
-24 -114 0
-24 -138 0
-24 -159 0
-24 -181 0
-24 -203 0
-48 -71 0
-48 -94 0
-48 -114 0
-48 -138 0
-48 -159 0
-48 -181 0
-48 -203 0
-71 -94 0
-71 -114 0
-71 -138 0
-71 -159 0
-71 -181 0
-71 -203 0
-94 -114 0
-94 -138 0
-94 -159 0
-94 -181 0
-94 -203 0
-114 -138 0
-114 -159 0
-114 -181 0
-114 -203 0
-138 -159 0
-138 -181 0
-138 -203 0
-159 -181 0
-159 -203 0
-181 -203 0
-25 -49 0
-25 -72 0
-25 -95 0
-25 -115 0
-25 -139 0
-25 -160 0
-25 -182 0
-25 -204 0
-25 -225 0
-49 -72 0
-49 -95 0
-49 -115 0
-49 -139 0
-49 -160 0
-49 -182 0
-49 -204 0
-49 -225 0
-72 -95 0
-72 -115 0
-72 -139 0
-72 -160 0
-72 -182 0
-72 -204 0
-72 -225 0
-95 -115 0
-95 -139 0
-95 -160 0
-95 -182 0
-95 -204 0
-95 -225 0
-115 -139 0
-115 -160 0
-115 -182 0
-115 -204 0
-115 -225 0
-139 -160 0
-139 -182 0
-139 -204 0
-139 -225 0
-160 -182 0
-160 -204 0
-160 -225 0
-182 -204 0
-182 -225 0
-204 -225 0